
Gurobi 11.0.1 (win64) logging started Tue May 14 18:25:32 2024

Set parameter LogFile to value "output/solver_log25.txt"
Gurobi Optimizer version 11.0.1 build v11.0.1rc0 (win64 - Windows 11.0 (22631.2))

CPU model: 11th Gen Intel(R) Core(TM) i7-1165G7 @ 2.80GHz, instruction set [SSE2|AVX|AVX2|AVX512]
Thread count: 4 physical cores, 8 logical processors, using up to 8 threads

Optimize a model with 1097 rows, 240 columns and 20773 nonzeros
Model fingerprint: 0x6031b297
Variable types: 88 continuous, 152 integer (152 binary)
Coefficient statistics:
  Matrix range     [4e-01, 1e+05]
  Objective range  [1e+00, 1e+02]
  Bounds range     [1e+00, 1e+00]
  RHS range        [1e-02, 1e+05]

User MIP start produced solution with objective 38085.5 (0.00s)
User MIP start produced solution with objective 39296.3 (0.00s)
Loaded user MIP start with objective 39296.3

Presolve removed 92 rows and 94 columns
Presolve time: 0.02s
Presolved: 1005 rows, 146 columns, 19977 nonzeros
Variable types: 81 continuous, 65 integer (64 binary)

Root relaxation: objective 4.098191e+04, 254 iterations, 0.01 seconds (0.03 work units)

    Nodes    |    Current Node    |     Objective Bounds      |     Work
 Expl Unexpl |  Obj  Depth IntInf | Incumbent    BestBd   Gap | It/Node Time

     0     0 40981.9126    0    5 39296.3240 40981.9126  4.29%     -    0s
     0     0 40001.9677    0    9 39296.3240 40001.9677  1.80%     -    0s
     0     0 39303.3320    0    6 39296.3240 39303.3320  0.02%     -    0s
     0     0 39303.1044    0    5 39296.3240 39303.1044  0.02%     -    0s
     0     0 39303.1043    0    5 39296.3240 39303.1043  0.02%     -    0s
     0     0 39303.1043    0    5 39296.3240 39303.1043  0.02%     -    0s
     0     2 39303.1043    0    5 39296.3240 39303.1043  0.02%     -    0s
H  239   101                    39296.768999 39302.7470  0.02%  18.5    0s
H  249   101                    39297.256291 39302.7470  0.01%  18.3    0s
H 7363   808                    39298.456457 39302.0408  0.01%  11.4    4s

Cutting planes:
  Inf proof: 4

Explored 7411 nodes (85727 simplex iterations) in 4.36 seconds (8.05 work units)
Thread count was 8 (of 8 available processors)

Solution count 6: 39298.5 39298.5 39297.3 ... 38085.5

Optimal solution found (tolerance 1.00e-04)
Best objective 3.929845645695e+04, best bound 3.930204084302e+04, gap 0.0091%
